1111, 0, 0, 94, 3
1112, 0, 1, 66, 2
1113, 0, 2, 47, 0
1114, 0, 3, 77, 4
1115, 0, 4, 84, 1
1116, 1, 0, 33, 3
1117, 1, 1, 70, 1
1118, 1, 2, 49, 4
1119, 1, 3, 93, 0
1120, 1, 4, 42, 2
1121, 2, 0, 52, 4
1122, 2, 1, 93, 0
1123, 2, 2, 76, 2
1124, 2, 3, 35, 3
1125, 2, 4, 44, 1
1126, 3, 0, 82, 3
1127, 3, 1, 84, 4
1128, 3, 2, 59, 2
1129, 3, 3, 47, 0
1130, 3, 4, 48, 1
